\Problem name: samp1.lp

Minimize
 90 x1 + 120 x2 + 170 x3 + 20 z1 + 20 z2 + 20 z3
Subject To
 100 x1 + 120 x2 + 160 x3 >= 10000
 110 x1 + 290 x2 + 330 x3 >= 5000
 320 x1 + 210 x2 + 130 x3 >= 8000
 20 x1 + 16 x2 + 12 x3 + 8 z1 + 8 z2 + 8 z3 <= 1500
 z1 + z2 + z3 >= 2
Bounds
 0 <= X1 <= 4
 2 <= X2 <= 5
 0 <= X3 <= 1
 3 <= X4 <= 8
Binaries
 X3 
Generals
 X2 
End